61
120
84	17
83	19
82	11
81	20
80	18
79	15
78	14
77	20
76	20
75	20
74	15
73	11
72	9
71	18
70	10
69	16
68	19
67	23
66	30
65	12
64	17
63	18
62	21
61	12
60	15
59	15
58	18
57	22
56	15
55	20
54	15
53	16
52	19
51	18
50	17
49	15
48	12
47	17
46	21
45	16
44	18
43	15
42	12
41	11
40	17
39	17
38	20
37	17
36	14
35	18
34	12
33	10
32	16
31	12
30	12
29	15
28	20
27	14
26	9
25	22
24	23
